c turning on binary mode checking
c parsing input formula with 202048 variables and 780980 clauses
c finished parsing, read 19444059 bytes from proof file
c detected empty clause; start verification via backward checking
c 22547 of 780980 clauses in core                            
c 32814 of 502219 lemmas in core using 237569 resolution steps
c 0 RAT lemmas in core; 1977 redundant literals in core lemmas
s VERIFIED
c verification time: 2.529 seconds
